out/norm/euclidex/z3/euclidex_norm_inv3_len2_5.out
unsat
((set-logic NIA)
(declare-fun q!3 () Int)
(declare-fun a!4 () Int)
(declare-fun b!2 () Int)
(declare-fun p!5 () Int)
(declare-fun s!0 () Int)
(declare-fun r!1 () Int)
(proof
(let ((?x1353 (* p!5 b!2)))
 (let ((?x143 (* q00 a00)))
 (let ((?x1021 (+ ?x143 (* (- 1) (* p00 b00)) ?x1353 (* (- 1) (* a!4 q!3)))))
 (let (($x2560 (<= ?x1021 0)))
 (let (($x1292 (= ?x1021 0)))
 (let ((?x3297 (* a!4 a!4 a!4 p!5 b!2 s!0 s!0 q!3)))
 (let ((?x2840 (* q00 a00 a!4 a!4 p!5 p!5 p!5 s!0)))
 (let ((?x2690 (* a!4 a!4 p!5 p!5 p!5 p!5 b!2 s!0)))
 (let ((?x2390 (* q00 a00 a!4 a!4 a!4 s!0 s!0 q!3)))
 (let ((?x482 (* p!5 p!5 p!5 p!5 b!2 b!2 b!2 s!0)))
 (let ((?x2588 (+ (* 5 (* a!4 p!5 p!5 p!5 b!2 b!2 s!0 q!3)) (* 3 (* p00 b00 p!5 p!5 b!2 b!2 s!0 q!3)) (* 3 (* p00 b00 a!4 a!4 p!5 p!5 s!0 q!3)) (* (- 1) (* p00 b00 p!5 p!5 p!5 b!2 b!2 s!0)) (* (- 1) (* a!4 a!4 a!4 a!4 s!0 s!0 q!3 q!3)) (* (- 1) (* p00 b00 a!4 a!4 p!5 p!5 p!5 s!0)) (* (- 2) (* p00 b00 a!4 b!2 s!0 q!3 q!3 q!3)) (* (- 1) (* a!4 a!4 p!5 p!5 p!5 b!2 s!0 q!3)) (* 3 (* p!5 p!5 b!2 b!2 b!2 s!0 q!3 q!3)) ?x482 (* p00 b00 b!2 b!2 s!0 q!3 q!3 q!3) (* 3 (* a!4 a!4 a!4 b!2 s!0 s!0 q!3 q!3)) (* (- 3) (* a!4 a!4 b!2 b!2 s!0 s!0 q!3 q!3)) (* (- 3) (* p!5 p!5 p!5 b!2 b!2 b!2 s!0 q!3)) (* 3 (* a!4 a!4 a!4 p!5 p!5 s!0 q!3 q!3)) (* (- 3) (* a!4 a!4 p!5 p!5 b!2 s!0 q!3 q!3)) (* (- 1) (* a!4 p!5 b!2 b!2 s!0 q!3 q!3 q!3)) (* (- 3) (* a!4 p!5 p!5 b!2 b!2 s!0 q!3 q!3)) (* (- 3) (* a!4 a!4 a!4 p!5 s!0 q!3 q!3 q!3)) (* 5 (* a!4 a!4 p!5 b!2 s!0 q!3 q!3 q!3)) (* (- 2) (* a!4 a!4 b!2 s!0 q!3 q!3 q!3 q!3)) (* a!4 b!2 b!2 s!0 q!3 q!3 q!3 q!3) (* (- 3) (* q00 a00 a!4 a!4 p!5 p!5 s!0 q!3)) (* (- 1) (* q00 a00 b!2 b!2 s!0 q!3 q!3 q!3)) (* 2 (* p00 b00 a!4 p!5 p!5 p!5 b!2 s!0)) (* 2 (* q00 a00 a!4 b!2 s!0 q!3 q!3 q!3)) (* p00 b00 a!4 a!4 s!0 q!3 q!3 q!3) (* 3 (* q00 a00 p!5 b!2 b!2 s!0 q!3 q!3)) (* (- 6) (* p00 b00 a!4 p!5 p!5 b!2 s!0 q!3)) (* (- 3) (* q00 a00 p!5 p!5 b!2 b!2 s!0 q!3)) (* (- 3) (* a!4 a!4 p!5 b!2 b!2 s!0 s!0 q!3)) (* 3 (* q00 a00 a!4 a!4 p!5 s!0 q!3 q!3)) (* (- 6) (* q00 a00 a!4 p!5 b!2 s!0 q!3 q!3)) (* 6 (* q00 a00 a!4 p!5 p!5 b!2 s!0 q!3)) (* (- 2) (* a!4 p!5 p!5 p!5 p!5 b!2 b!2 s!0)) (* q00 a00 p!5 p!5 p!5 b!2 b!2 s!0) (* 3 (* p00 b00 a!4 a!4 b!2 s!0 s!0 q!3)) (* (- 3) (* p00 b00 a!4 b!2 b!2 s!0 s!0 q!3)) (* p00 b00 b!2 b!2 b!2 s!0 s!0 q!3) (* (- 1) (* q00 a00 b!2 b!2 b!2 s!0 s!0 q!3)) ?x2390 (* (- 1) (* p!5 b!2 b!2 b!2 s!0 q!3 q!3 q!3)) (* (- 3) (* p00 b00 p!5 b!2 b!2 s!0 q!3 q!3)) (* (- 1) (* p00 b00 a!4 a!4 a!4 s!0 s!0 q!3)) ?x2690 (* a!4 a!4 a!4 s!0 q!3 q!3 q!3 q!3) (* (- 2) (* q00 a00 a!4 p!5 p!5 p!5 b!2 s!0)) (* 3 (* a!4 p!5 b!2 b!2 b!2 s!0 s!0 q!3)) (* (- 1) (* a!4 a!4 a!4 p!5 p!5 p!5 s!0 q!3)) ?x2840 (* 6 (* p00 b00 a!4 p!5 b!2 s!0 q!3 q!3)) (* (- 3) (* p00 b00 a!4 a!4 p!5 s!0 q!3 q!3)) (* (- 1) (* q00 a00 a!4 a!4 s!0 q!3 q!3 q!3)) (* (- 1) (* p!5 b!2 b!2 b!2 b!2 s!0 s!0 q!3)) (* 3 (* q00 a00 a!4 b!2 b!2 s!0 s!0 q!3)) (* (- 3) (* q00 a00 a!4 a!4 b!2 s!0 s!0 q!3)) (* a!4 b!2 b!2 b!2 s!0 s!0 q!3 q!3) ?x3297)))
 (let (($x3167 (= ?x2588 0)))
 (let ((?x2839 (* a!4 a!4 a!4 p!5 p!5 p!5 s!0 q!3)))
 (let ((?x2605 (* p00 b00 a!4 a!4 a!4 s!0 s!0 q!3)))
 (let ((?x413 (* p00 b00 a!4 a!4 p!5 p!5 p!5 s!0)))
 (let ((?x399 (* a!4 a!4 a!4 a!4 s!0 s!0 q!3 q!3)))
 (let ((?x161 (* a!4 a!4 a!4 a!4 q!3 q!3 r!1 r!1)))
 (let ((?x507 (+ ?x161 (* (- 1) (* q00 a00 a!4 a!4 a!4 q!3 r!1 r!1)) (* 2 (* q00 a00 a!4 a!4 a!4 s!0 q!3 r!1)) ?x399 ?x413 (* 2 (* a!4 a!4 a!4 a!4 p!5 s!0 q!3 r!1)) (* 2 (* a!4 a!4 a!4 p!5 b!2 s!0 q!3 r!1)) (* a!4 a!4 a!4 p!5 p!5 b!2 s!0 s!0) (* (- 2) (* a!4 a!4 a!4 p!5 p!5 b!2 s!0 r!1)) (* q00 a00 a!4 a!4 p!5 p!5 p!5 r!1) (* a!4 a!4 a!4 p!5 p!5 b!2 r!1 r!1) (* (- 1) (* a!4 a!4 a!4 p!5 b!2 q!3 r!1 r!1)) (* (- 2) (* p00 b00 a!4 a!4 a!4 s!0 q!3 r!1)) (* (- 1) (* p00 b00 a!4 a!4 a!4 p!5 s!0 s!0)) (* (- 1) (* p00 b00 a!4 a!4 a!4 p!5 r!1 r!1)) (* p00 b00 a!4 a!4 a!4 q!3 r!1 r!1) (* (- 1) (* a!4 a!4 a!4 p!5 p!5 p!5 q!3 r!1)) (* (- 1) (* p00 b00 a!4 a!4 p!5 p!5 p!5 r!1)) (* (- 1) ?x2390) ?x2605 (* q00 a00 a!4 a!4 a!4 p!5 s!0 s!0) (* q00 a00 a!4 a!4 a!4 p!5 r!1 r!1) (* (- 2) (* q00 a00 a!4 a!4 a!4 p!5 s!0 r!1)) (* (- 1) ?x2690) ?x2839 (* (- 1) ?x2840) (* a!4 a!4 p!5 p!5 p!5 p!5 b!2 r!1) (* 2 (* p00 b00 a!4 a!4 a!4 p!5 s!0 r!1)) (* (- 1) (* a!4 a!4 a!4 a!4 p!5 s!0 s!0 q!3)) (* (- 1) (* a!4 a!4 a!4 a!4 p!5 q!3 r!1 r!1)) (* (- 2) (* a!4 a!4 a!4 a!4 s!0 q!3 q!3 r!1)) (* (- 1) ?x3297))))
 (let (($x238 (= ?x507 0)))
 (let (($x2985 (not $x238)))
 (let (($x2838 (or $x2985 (not $x3167))))
 (let ((?x2058 (+ (* q00 r00 b!2) (* (- 1) (* r00 b00 q!3)) (* s00 a00 q!3) (* (- 1) (* q00 a00 s!0)) (* (- 1) (* p00 s00 b!2)) (* p00 b00 s!0))))
 (let ((?x1000 (+ (* p00 b00 r!1) (* q00 r00 a!4) (* s00 a00 p!5) (* (- 1) (* q00 a00 r!1)) (* (- 1) (* p00 s00 a!4)) (* (- 1) (* r00 b00 p!5)))))
 (let ((?x3139 (* b!2 r!1)))
 (let ((?x139 (* s00 a00)))
 (let (($x377 (= (+ ?x139 (* (- 1) (* r00 b00)) ?x3139 (* (- 1) (* a!4 s!0))) 0)))
 (let ((?x1765 (* q!3 r!1)))
 (let ((?x41 (* q00 r00)))
 (let ((?x3065 (* (- 1) ?x41)))
 (let ((?x37 (* p00 s00)))
 (let (($x3090 (and (= (+ ?x37 ?x3065 (* (- 1) (* p!5 s!0)) ?x1765) 0) $x377 $x1292 (= ?x1000 0) (= ?x2058 0) $x2838)))
 (let ((?x2716 (* (- 1) (* p!5 a!4 a!4 a!4 q!3 b!2 s!0 s!0))))
 (let ((?x3035 (* (- 1) (* p!5 p!5 p!5 p!5 a!4 a!4 b!2 s!0))))
 (let ((?x923 (* a!4 a!4 a!4 q!3 s!0 s!0 p00 b00)))
 (let ((?x141 (* (- 1) (* a!4 a!4 a!4 q!3 s!0 s!0 q00 a00))))
 (let ((?x1125 (* (- 1) (* p!5 p!5 p!5 a!4 a!4 s!0 q00 a00))))
 (let ((?x2066 (* p!5 p!5 p!5 a!4 a!4 a!4 q!3 s!0)))
 (let ((?x2062 (* p!5 p!5 p!5 a!4 a!4 s!0 p00 b00)))
 (let ((?x2055 (* a!4 a!4 a!4 a!4 q!3 q!3 s!0 s!0)))
 (let ((?x2047 (+ ?x2055 (* (- 3) (* a!4 a!4 a!4 q!3 q!3 b!2 s!0 s!0)) (* 3 (* a!4 a!4 q!3 q!3 b!2 b!2 s!0 s!0)) (* (- 1) (* a!4 q!3 q!3 b!2 b!2 b!2 s!0 s!0)) ?x2062 (* (- 2) (* p!5 p!5 p!5 a!4 b!2 s!0 p00 b00)) (* p!5 p!5 p!5 b!2 b!2 s!0 p00 b00) (* (- 3) (* p!5 p!5 a!4 a!4 q!3 s!0 p00 b00)) (* 6 (* p!5 p!5 a!4 q!3 b!2 s!0 p00 b00)) (* (- 3) (* p!5 p!5 q!3 b!2 b!2 s!0 p00 b00)) (* 3 (* p!5 a!4 a!4 q!3 q!3 s!0 p00 b00)) (* (- 6) (* p!5 a!4 q!3 q!3 b!2 s!0 p00 b00)) (* 3 (* p!5 q!3 q!3 b!2 b!2 s!0 p00 b00)) (* (- 1) (* a!4 a!4 q!3 q!3 q!3 s!0 p00 b00)) (* 2 (* a!4 q!3 q!3 q!3 b!2 s!0 p00 b00)) (* (- 1) (* q!3 q!3 q!3 b!2 b!2 s!0 p00 b00)) ?x2066 (* p!5 p!5 p!5 a!4 a!4 q!3 b!2 s!0) (* (- 5) (* p!5 p!5 p!5 a!4 q!3 b!2 b!2 s!0)) (* 3 (* p!5 p!5 p!5 q!3 b!2 b!2 b!2 s!0)) (* (- 3) (* p!5 p!5 a!4 a!4 a!4 q!3 q!3 s!0)) (* 3 (* p!5 p!5 a!4 a!4 q!3 q!3 b!2 s!0)) (* 3 (* p!5 p!5 a!4 q!3 q!3 b!2 b!2 s!0)) (* (- 3) (* p!5 p!5 q!3 q!3 b!2 b!2 b!2 s!0)) (* 3 (* p!5 a!4 a!4 a!4 q!3 q!3 q!3 s!0)) (* (- 5) (* p!5 a!4 a!4 q!3 q!3 q!3 b!2 s!0)) (* p!5 a!4 q!3 q!3 q!3 b!2 b!2 s!0) (* p!5 q!3 q!3 q!3 b!2 b!2 b!2 s!0) (* (- 1) (* a!4 a!4 a!4 q!3 q!3 q!3 q!3 s!0)) (* 2 (* a!4 a!4 q!3 q!3 q!3 q!3 b!2 s!0)) (* (- 1) (* a!4 q!3 q!3 q!3 q!3 b!2 b!2 s!0)) ?x1125 (* 2 (* p!5 p!5 p!5 a!4 b!2 s!0 q00 a00)) (* (- 1) (* p!5 p!5 p!5 b!2 b!2 s!0 q00 a00)) (* 3 (* p!5 p!5 a!4 a!4 q!3 s!0 q00 a00)) (* (- 6) (* p!5 p!5 a!4 q!3 b!2 s!0 q00 a00)) (* 3 (* p!5 p!5 q!3 b!2 b!2 s!0 q00 a00)) (* (- 3) (* p!5 a!4 a!4 q!3 q!3 s!0 q00 a00)) (* 6 (* p!5 a!4 q!3 q!3 b!2 s!0 q00 a00)) (* (- 3) (* p!5 q!3 q!3 b!2 b!2 s!0 q00 a00)) (* a!4 a!4 q!3 q!3 q!3 s!0 q00 a00) (* (- 2) (* a!4 q!3 q!3 q!3 b!2 s!0 q00 a00)) (* q!3 q!3 q!3 b!2 b!2 s!0 q00 a00) ?x141 (* 3 (* a!4 a!4 q!3 b!2 s!0 s!0 q00 a00)) (* (- 3) (* a!4 q!3 b!2 b!2 s!0 s!0 q00 a00)) (* q!3 b!2 b!2 b!2 s!0 s!0 q00 a00) ?x923 (* (- 3) (* a!4 a!4 q!3 b!2 s!0 s!0 p00 b00)) (* 3 (* a!4 q!3 b!2 b!2 s!0 s!0 p00 b00)) (* (- 1) (* q!3 b!2 b!2 b!2 s!0 s!0 p00 b00)) ?x3035 (* 2 (* p!5 p!5 p!5 p!5 a!4 b!2 b!2 s!0)) (* (- 1) ?x482) ?x2716 (* 3 (* p!5 a!4 a!4 q!3 b!2 b!2 s!0 s!0)) (* (- 3) (* p!5 a!4 q!3 b!2 b!2 b!2 s!0 s!0)) (* p!5 q!3 b!2 b!2 b!2 b!2 s!0 s!0))))
 (let ((?x1050 (+ ?x2055 ?x2062 ?x2066 ?x1125 (* (- 1) (* p!5 a!4 a!4 a!4 a!4 q!3 r!1 r!1)) ?x141 ?x161 ?x923 (* 2 (* p!5 a!4 a!4 a!4 a!4 q!3 r!1 s!0)) ?x3035 (* (- 2) (* a!4 a!4 a!4 a!4 q!3 q!3 r!1 s!0)) ?x2716 (* (- 1) (* p!5 a!4 a!4 a!4 a!4 q!3 s!0 s!0)) (* (- 1) (* p!5 p!5 p!5 a!4 a!4 r!1 p00 b00)) (* (- 1) (* p!5 p!5 p!5 a!4 a!4 a!4 q!3 r!1)) (* p!5 p!5 p!5 a!4 a!4 r!1 q00 a00) (* p!5 a!4 a!4 a!4 r!1 r!1 q00 a00) (* (- 1) (* a!4 a!4 a!4 q!3 r!1 r!1 q00 a00)) (* (- 2) (* p!5 a!4 a!4 a!4 r!1 s!0 q00 a00)) (* 2 (* a!4 a!4 a!4 q!3 r!1 s!0 q00 a00)) (* p!5 a!4 a!4 a!4 s!0 s!0 q00 a00) (* (- 1) (* p!5 a!4 a!4 a!4 r!1 r!1 p00 b00)) (* a!4 a!4 a!4 q!3 r!1 r!1 p00 b00) (* 2 (* p!5 a!4 a!4 a!4 r!1 s!0 p00 b00)) (* (- 2) (* a!4 a!4 a!4 q!3 r!1 s!0 p00 b00)) (* (- 1) (* p!5 a!4 a!4 a!4 s!0 s!0 p00 b00)) (* p!5 p!5 p!5 p!5 a!4 a!4 b!2 r!1) (* p!5 p!5 a!4 a!4 a!4 b!2 r!1 r!1) (* (- 1) (* p!5 a!4 a!4 a!4 q!3 b!2 r!1 r!1)) (* (- 2) (* p!5 p!5 a!4 a!4 a!4 b!2 r!1 s!0)) (* 2 (* p!5 a!4 a!4 a!4 q!3 b!2 r!1 s!0)) (* p!5 p!5 a!4 a!4 a!4 b!2 s!0 s!0))))
 (let ((?x892 (+ (* b!2 q00 r00) (* (- 1) (* b!2 p00 s00)) (* s!0 p00 b00) (* (- 1) (* q!3 r00 b00)) (* q!3 s00 a00) (* (- 1) (* s!0 q00 a00)))))
 (let ((?x3251 (+ (* a!4 p00 s00) (* (- 1) (* a!4 q00 r00)) (* p!5 r00 b00) (* (- 1) (* r!1 p00 b00)) (* (- 1) (* p!5 s00 a00)) (* r!1 q00 a00))))
 (let (($x1420 (= (+ (* a!4 q!3) (* (- 1) ?x143) (* p00 b00) (* (- 1) ?x1353)) 0)))
 (let (($x1984 (= (+ (* a!4 s!0) (* (- 1) ?x3139) (* (- 1) ?x139) (* r00 b00)) 0)))
 (let (($x1462 (and (= (+ (* p!5 s!0) (* (- 1) ?x37) ?x41 (* (- 1) ?x1765)) 0) $x1984 $x1420 (= ?x3251 0) (= ?x892 0) (or (not (= ?x1050 0)) (not (= ?x2047 0))))))
 (let (($x719 (exists ((p Int) (a Int) (q Int) (b Int) (r Int) (s Int) )(! (let ((?x2563 (* (- 1) (* p a a a q b s s))))
 (let ((?x2382 (* (- 1) (* p p p p a a b s))))
 (let ((?x1830 (* a a a q s s p00 b00)))
 (let ((?x1790 (* (- 1) (* a a a q s s q00 a00))))
 (let ((?x1660 (* (- 1) (* p p p a a s q00 a00))))
 (let ((?x827 (* p p p a a a q s)))
 (let ((?x485 (* p p p a a s p00 b00)))
 (let ((?x273 (* a a a a q q s s)))
 (let ((?x2576 (+ ?x273 (* (- 3) (* a a a q q b s s)) (* 3 (* a a q q b b s s)) (* (- 1) (* a q q b b b s s)) ?x485 (* (- 2) (* p p p a b s p00 b00)) (* p p p b b s p00 b00) (* (- 3) (* p p a a q s p00 b00)) (* 6 (* p p a q b s p00 b00)) (* (- 3) (* p p q b b s p00 b00)) (* 3 (* p a a q q s p00 b00)) (* (- 6) (* p a q q b s p00 b00)) (* 3 (* p q q b b s p00 b00)) (* (- 1) (* a a q q q s p00 b00)) (* 2 (* a q q q b s p00 b00)) (* (- 1) (* q q q b b s p00 b00)) ?x827 (* p p p a a q b s) (* (- 5) (* p p p a q b b s)) (* 3 (* p p p q b b b s)) (* (- 3) (* p p a a a q q s)) (* 3 (* p p a a q q b s)) (* 3 (* p p a q q b b s)) (* (- 3) (* p p q q b b b s)) (* 3 (* p a a a q q q s)) (* (- 5) (* p a a q q q b s)) (* p a q q q b b s) (* p q q q b b b s) (* (- 1) (* a a a q q q q s)) (* 2 (* a a q q q q b s)) (* (- 1) (* a q q q q b b s)) ?x1660 (* 2 (* p p p a b s q00 a00)) (* (- 1) (* p p p b b s q00 a00)) (* 3 (* p p a a q s q00 a00)) (* (- 6) (* p p a q b s q00 a00)) (* 3 (* p p q b b s q00 a00)) (* (- 3) (* p a a q q s q00 a00)) (* 6 (* p a q q b s q00 a00)) (* (- 3) (* p q q b b s q00 a00)) (* a a q q q s q00 a00) (* (- 2) (* a q q q b s q00 a00)) (* q q q b b s q00 a00) ?x1790 (* 3 (* a a q b s s q00 a00)) (* (- 3) (* a q b b s s q00 a00)) (* q b b b s s q00 a00) ?x1830 (* (- 3) (* a a q b s s p00 b00)) (* 3 (* a q b b s s p00 b00)) (* (- 1) (* q b b b s s p00 b00)) ?x2382 (* 2 (* p p p p a b b s)) (* (- 1) (* p p p p b b b s)) ?x2563 (* 3 (* p a a q b b s s)) (* (- 3) (* p a q b b b s s)) (* p q b b b b s s))))
 (let (($x268 (not (= ?x2576 0))))
 (let ((?x3247 (+ ?x273 ?x485 ?x827 ?x1660 (* (- 1) (* p a a a a q r r)) ?x1790 (* a a a a q q r r) ?x1830 (* 2 (* p a a a a q r s)) ?x2382 (* (- 2) (* a a a a q q r s)) ?x2563 (* (- 1) (* p a a a a q s s)) (* (- 1) (* p p p a a r p00 b00)) (* (- 1) (* p p p a a a q r)) (* p p p a a r q00 a00) (* p a a a r r q00 a00) (* (- 1) (* a a a q r r q00 a00)) (* (- 2) (* p a a a r s q00 a00)) (* 2 (* a a a q r s q00 a00)) (* p a a a s s q00 a00) (* (- 1) (* p a a a r r p00 b00)) (* a a a q r r p00 b00) (* 2 (* p a a a r s p00 b00)) (* (- 2) (* a a a q r s p00 b00)) (* (- 1) (* p a a a s s p00 b00)) (* p p p p a a b r) (* p p a a a b r r) (* (- 1) (* p a a a q b r r)) (* (- 2) (* p p a a a b r s)) (* 2 (* p a a a q b r s)) (* p p a a a b s s))))
 (let (($x756 (not (= ?x3247 0))))
 (let ((?x72 (* b q00 r00)))
 (let ((?x319 (+ ?x72 (* (- 1) (* b p00 s00)) (* s p00 b00) (* (- 1) (* q r00 b00)) (* q s00 a00) (* (- 1) (* s q00 a00)))))
 (let (($x324 (= ?x319 0)))
 (let ((?x63 (* a p00 s00)))
 (let ((?x255 (+ ?x63 (* (- 1) (* a q00 r00)) (* p r00 b00) (* (- 1) (* r p00 b00)) (* (- 1) (* p s00 a00)) (* r q00 a00))))
 (let (($x256 (= ?x255 0)))
 (let ((?x144 (* p00 b00)))
 (let ((?x143 (* q00 a00)))
 (let ((?x187 (* (- 1) ?x143)))
 (let (($x190 (= (+ (* a q) ?x187 ?x144 (* (- 1) (* p b))) 0)))
 (let ((?x157 (* r00 b00)))
 (let ((?x139 (* s00 a00)))
 (let ((?x146 (* (- 1) ?x139)))
 (let ((?x49 (* a s)))
 (let (($x172 (= (+ ?x49 (* (- 1) (* b r)) ?x146 ?x157) 0)))
 (let ((?x41 (* q00 r00)))
 (let ((?x37 (* p00 s00)))
 (let ((?x148 (* (- 1) ?x37)))
 (let ((?x33 (* p s)))
 (let (($x167 (= (+ ?x33 ?x148 ?x41 (* (- 1) (* q r))) 0)))
 (and $x167 $x172 $x190 $x256 $x324 (or $x756 $x268)))))))))))))))))))))))))))))))))) :qid k!39))
 ))
 (let (($x2945 (exists ((p Int) (a Int) (q Int) (b Int) (r Int) (s Int) )(! (let ((?x1130 (+ p (* (- 1) q))))
 (let ((?x2632 (+ a (* (- 1) b))))
 (let ((?x847 (+ (* ?x2632 ?x2632 ?x2632 ?x2632 s s q q) (* b00 p00 ?x2632 ?x2632 ?x1130 ?x1130 ?x1130 s) (* ?x2632 ?x2632 ?x2632 ?x1130 ?x1130 ?x1130 s q) (* (- 1) (* a00 q00 ?x2632 ?x2632 ?x1130 ?x1130 ?x1130 s)) (* (- 1) (* a00 q00 ?x2632 ?x2632 ?x2632 s s q)) (* b00 p00 ?x2632 ?x2632 ?x2632 s s q) (* (- 1) (* ?x2632 ?x2632 ?x1130 ?x1130 ?x1130 ?x1130 s b)) (* (- 1) (* ?x2632 ?x2632 ?x2632 ?x1130 s s b q)))))
 (let ((?x856 (+ q (* (- 1) p))))
 (let ((?x844 (+ b (* (- 1) a))))
 (let ((?x2948 (+ s (* (- 1) r))))
 (let ((?x888 (+ (* ?x2948 ?x2948 ?x856 ?x856 a a a a) (* b00 p00 ?x2948 a a p p p) (* ?x2948 ?x856 a a a p p p) (* (- 1) (* a00 q00 ?x2948 a a p p p)) (* (- 1) (* a00 q00 ?x2948 ?x2948 ?x856 a a a)) (* b00 p00 ?x2948 ?x2948 ?x856 a a a) (* (- 1) (* ?x2948 ?x844 a a p p p p)) (* (- 1) (* ?x2948 ?x2948 ?x844 ?x856 a a a p)))))
 (let (($x2969 (or (not (= ?x888 0)) (not (= ?x847 0)))))
 (let ((?x73 (* b00 p00 s)))
 (let ((?x2957 (+ (* q00 r00 b) ?x73 (* (- 1) (* b00 r00 q)) (* (- 1) (* p00 s00 b)) (* a00 s00 q) (* (- 1) (* a00 q00 s)))))
 (let (($x2963 (= ?x2957 0)))
 (let ((?x69 (* a00 q00 r)))
 (let ((?x3077 (* p00 s00 a)))
 (let ((?x3062 (* b00 r00 p)))
 (let ((?x2063 (+ ?x3062 ?x3077 (* (- 1) (* b00 p00 r)) (* (- 1) (* q00 r00 a)) (* (- 1) (* a00 s00 p)) ?x69)))
 (let ((?x57 (* b00 p00)))
 (let ((?x1217 (* q a)))
 (let (($x2936 (= (+ ?x1217 (* (- 1) (* a00 q00)) ?x57 (* (- 1) (* b p))) 0)))
 (let ((?x47 (* a00 s00)))
 (let ((?x2038 (* r b)))
 (let (($x1126 (= (+ ?x2038 ?x47 (* (- 1) (* s a)) (* (- 1) (* b00 r00))) 0)))
 (let ((?x41 (* q00 r00)))
 (let ((?x3065 (* (- 1) ?x41)))
 (let ((?x37 (* p00 s00)))
 (let ((?x1210 (* r q)))
 (and (= (+ ?x1210 (* (- 1) (* s p)) ?x37 ?x3065) 0) $x1126 $x2936 (= ?x2063 0) $x2963 $x2969)))))))))))))))))))))))))) :qid k!39))
 ))
 (let ((?x1387 (lambda ((p Int) (a Int) (q Int) (b Int) (r Int) (s Int) )(let ((?x2563 (* (- 1) (* p a a a q b s s))))
 (let ((?x2382 (* (- 1) (* p p p p a a b s))))
 (let ((?x1830 (* a a a q s s p00 b00)))
 (let ((?x1790 (* (- 1) (* a a a q s s q00 a00))))
 (let ((?x1660 (* (- 1) (* p p p a a s q00 a00))))
 (let ((?x827 (* p p p a a a q s)))
 (let ((?x485 (* p p p a a s p00 b00)))
 (let ((?x273 (* a a a a q q s s)))
 (let ((?x2576 (+ ?x273 (* (- 3) (* a a a q q b s s)) (* 3 (* a a q q b b s s)) (* (- 1) (* a q q b b b s s)) ?x485 (* (- 2) (* p p p a b s p00 b00)) (* p p p b b s p00 b00) (* (- 3) (* p p a a q s p00 b00)) (* 6 (* p p a q b s p00 b00)) (* (- 3) (* p p q b b s p00 b00)) (* 3 (* p a a q q s p00 b00)) (* (- 6) (* p a q q b s p00 b00)) (* 3 (* p q q b b s p00 b00)) (* (- 1) (* a a q q q s p00 b00)) (* 2 (* a q q q b s p00 b00)) (* (- 1) (* q q q b b s p00 b00)) ?x827 (* p p p a a q b s) (* (- 5) (* p p p a q b b s)) (* 3 (* p p p q b b b s)) (* (- 3) (* p p a a a q q s)) (* 3 (* p p a a q q b s)) (* 3 (* p p a q q b b s)) (* (- 3) (* p p q q b b b s)) (* 3 (* p a a a q q q s)) (* (- 5) (* p a a q q q b s)) (* p a q q q b b s) (* p q q q b b b s) (* (- 1) (* a a a q q q q s)) (* 2 (* a a q q q q b s)) (* (- 1) (* a q q q q b b s)) ?x1660 (* 2 (* p p p a b s q00 a00)) (* (- 1) (* p p p b b s q00 a00)) (* 3 (* p p a a q s q00 a00)) (* (- 6) (* p p a q b s q00 a00)) (* 3 (* p p q b b s q00 a00)) (* (- 3) (* p a a q q s q00 a00)) (* 6 (* p a q q b s q00 a00)) (* (- 3) (* p q q b b s q00 a00)) (* a a q q q s q00 a00) (* (- 2) (* a q q q b s q00 a00)) (* q q q b b s q00 a00) ?x1790 (* 3 (* a a q b s s q00 a00)) (* (- 3) (* a q b b s s q00 a00)) (* q b b b s s q00 a00) ?x1830 (* (- 3) (* a a q b s s p00 b00)) (* 3 (* a q b b s s p00 b00)) (* (- 1) (* q b b b s s p00 b00)) ?x2382 (* 2 (* p p p p a b b s)) (* (- 1) (* p p p p b b b s)) ?x2563 (* 3 (* p a a q b b s s)) (* (- 3) (* p a q b b b s s)) (* p q b b b b s s))))
 (let (($x268 (not (= ?x2576 0))))
 (let ((?x3247 (+ ?x273 ?x485 ?x827 ?x1660 (* (- 1) (* p a a a a q r r)) ?x1790 (* a a a a q q r r) ?x1830 (* 2 (* p a a a a q r s)) ?x2382 (* (- 2) (* a a a a q q r s)) ?x2563 (* (- 1) (* p a a a a q s s)) (* (- 1) (* p p p a a r p00 b00)) (* (- 1) (* p p p a a a q r)) (* p p p a a r q00 a00) (* p a a a r r q00 a00) (* (- 1) (* a a a q r r q00 a00)) (* (- 2) (* p a a a r s q00 a00)) (* 2 (* a a a q r s q00 a00)) (* p a a a s s q00 a00) (* (- 1) (* p a a a r r p00 b00)) (* a a a q r r p00 b00) (* 2 (* p a a a r s p00 b00)) (* (- 2) (* a a a q r s p00 b00)) (* (- 1) (* p a a a s s p00 b00)) (* p p p p a a b r) (* p p a a a b r r) (* (- 1) (* p a a a q b r r)) (* (- 2) (* p p a a a b r s)) (* 2 (* p a a a q b r s)) (* p p a a a b s s))))
 (let (($x756 (not (= ?x3247 0))))
 (let ((?x72 (* b q00 r00)))
 (let ((?x319 (+ ?x72 (* (- 1) (* b p00 s00)) (* s p00 b00) (* (- 1) (* q r00 b00)) (* q s00 a00) (* (- 1) (* s q00 a00)))))
 (let (($x324 (= ?x319 0)))
 (let ((?x63 (* a p00 s00)))
 (let ((?x255 (+ ?x63 (* (- 1) (* a q00 r00)) (* p r00 b00) (* (- 1) (* r p00 b00)) (* (- 1) (* p s00 a00)) (* r q00 a00))))
 (let (($x256 (= ?x255 0)))
 (let ((?x144 (* p00 b00)))
 (let ((?x143 (* q00 a00)))
 (let ((?x187 (* (- 1) ?x143)))
 (let (($x190 (= (+ (* a q) ?x187 ?x144 (* (- 1) (* p b))) 0)))
 (let ((?x157 (* r00 b00)))
 (let ((?x139 (* s00 a00)))
 (let ((?x146 (* (- 1) ?x139)))
 (let ((?x49 (* a s)))
 (let (($x172 (= (+ ?x49 (* (- 1) (* b r)) ?x146 ?x157) 0)))
 (let ((?x41 (* q00 r00)))
 (let ((?x37 (* p00 s00)))
 (let ((?x148 (* (- 1) ?x37)))
 (let ((?x33 (* p s)))
 (let (($x167 (= (+ ?x33 ?x148 ?x41 (* (- 1) (* q r))) 0)))
 (let (($x1014 (and $x167 $x172 $x190 $x256 $x324 (or $x756 $x268))))
 (let ((?x1130 (+ p (* (- 1) q))))
 (let ((?x2632 (+ a (* (- 1) b))))
 (let ((?x847 (+ (* ?x2632 ?x2632 ?x2632 ?x2632 s s q q) (* b00 p00 ?x2632 ?x2632 ?x1130 ?x1130 ?x1130 s) (* ?x2632 ?x2632 ?x2632 ?x1130 ?x1130 ?x1130 s q) (* (- 1) (* a00 q00 ?x2632 ?x2632 ?x1130 ?x1130 ?x1130 s)) (* (- 1) (* a00 q00 ?x2632 ?x2632 ?x2632 s s q)) (* b00 p00 ?x2632 ?x2632 ?x2632 s s q) (* (- 1) (* ?x2632 ?x2632 ?x1130 ?x1130 ?x1130 ?x1130 s b)) (* (- 1) (* ?x2632 ?x2632 ?x2632 ?x1130 s s b q)))))
 (let ((?x856 (+ q (* (- 1) p))))
 (let ((?x844 (+ b (* (- 1) a))))
 (let ((?x2948 (+ s (* (- 1) r))))
 (let ((?x888 (+ (* ?x2948 ?x2948 ?x856 ?x856 a a a a) (* b00 p00 ?x2948 a a p p p) (* ?x2948 ?x856 a a a p p p) (* (- 1) (* a00 q00 ?x2948 a a p p p)) (* (- 1) (* a00 q00 ?x2948 ?x2948 ?x856 a a a)) (* b00 p00 ?x2948 ?x2948 ?x856 a a a) (* (- 1) (* ?x2948 ?x844 a a p p p p)) (* (- 1) (* ?x2948 ?x2948 ?x844 ?x856 a a a p)))))
 (let (($x2969 (or (not (= ?x888 0)) (not (= ?x847 0)))))
 (let ((?x73 (* b00 p00 s)))
 (let ((?x2957 (+ (* q00 r00 b) ?x73 (* (- 1) (* b00 r00 q)) (* (- 1) (* p00 s00 b)) (* a00 s00 q) (* (- 1) (* a00 q00 s)))))
 (let (($x2963 (= ?x2957 0)))
 (let ((?x69 (* a00 q00 r)))
 (let ((?x3077 (* p00 s00 a)))
 (let ((?x3062 (* b00 r00 p)))
 (let ((?x2063 (+ ?x3062 ?x3077 (* (- 1) (* b00 p00 r)) (* (- 1) (* q00 r00 a)) (* (- 1) (* a00 s00 p)) ?x69)))
 (let ((?x57 (* b00 p00)))
 (let ((?x1217 (* q a)))
 (let (($x2936 (= (+ ?x1217 (* (- 1) (* a00 q00)) ?x57 (* (- 1) (* b p))) 0)))
 (let ((?x47 (* a00 s00)))
 (let ((?x2038 (* r b)))
 (let (($x1126 (= (+ ?x2038 ?x47 (* (- 1) (* s a)) (* (- 1) (* b00 r00))) 0)))
 (let (($x1071 (= (+ (* r q) (* (- 1) (* s p)) ?x37 (* (- 1) ?x41)) 0)))
 (let (($x2631 (and $x1071 $x1126 $x2936 (= ?x2063 0) $x2963 $x2969)))
 (rewrite (= $x2631 $x1014)))))))))))))))))))))))))))))))))))))))))))))))))))))))))))
 ))
 (let (($x2953 (exists ((p Int) (a Int) (q Int) (b Int) (r Int) (s Int) )(! (let ((?x1130 (+ p (* (- 1) q))))
 (let ((?x2632 (+ a (* (- 1) b))))
 (let ((?x847 (+ (* ?x2632 ?x2632 ?x2632 ?x2632 s s q q) (* b00 p00 ?x2632 ?x2632 ?x1130 ?x1130 ?x1130 s) (* ?x2632 ?x2632 ?x2632 ?x1130 ?x1130 ?x1130 s q) (* (- 1) (* a00 q00 ?x2632 ?x2632 ?x1130 ?x1130 ?x1130 s)) (* (- 1) (* a00 q00 ?x2632 ?x2632 ?x2632 s s q)) (* b00 p00 ?x2632 ?x2632 ?x2632 s s q) (* (- 1) (* ?x2632 ?x2632 ?x1130 ?x1130 ?x1130 ?x1130 s b)) (* (- 1) (* ?x2632 ?x2632 ?x2632 ?x1130 s s b q)))))
 (let ((?x856 (+ q (* (- 1) p))))
 (let ((?x844 (+ b (* (- 1) a))))
 (let ((?x2948 (+ s (* (- 1) r))))
 (let ((?x888 (+ (* ?x2948 ?x2948 ?x856 ?x856 a a a a) (* b00 p00 ?x2948 a a p p p) (* ?x2948 ?x856 a a a p p p) (* (- 1) (* a00 q00 ?x2948 a a p p p)) (* (- 1) (* a00 q00 ?x2948 ?x2948 ?x856 a a a)) (* b00 p00 ?x2948 ?x2948 ?x856 a a a) (* (- 1) (* ?x2948 ?x844 a a p p p p)) (* (- 1) (* ?x2948 ?x2948 ?x844 ?x856 a a a p)))))
 (let (($x2969 (or (not (= ?x888 0)) (not (= ?x847 0)))))
 (let ((?x73 (* b00 p00 s)))
 (let ((?x2957 (+ (* q00 r00 b) ?x73 (* (- 1) (* b00 r00 q)) (* (- 1) (* p00 s00 b)) (* a00 s00 q) (* (- 1) (* a00 q00 s)))))
 (let (($x2963 (= ?x2957 0)))
 (let ((?x2210 (* a00 s00 p)))
 (let ((?x2203 (* q00 r00 a)))
 (let ((?x65 (* b00 p00 r)))
 (let ((?x2910 (+ (* (- 1) (* b00 r00 p)) (* (- 1) (* p00 s00 a)) ?x65 ?x2203 ?x2210 (* (- 1) (* a00 q00 r)))))
 (let ((?x59 (* b p)))
 (let ((?x55 (* a00 q00)))
 (let (($x2395 (= (+ (* (- 1) (* q a)) ?x55 (* (- 1) (* b00 p00)) ?x59) 0)))
 (let ((?x51 (* b00 r00)))
 (let ((?x2998 (* s a)))
 (let (($x879 (= (+ (* (- 1) (* r b)) (* (- 1) (* a00 s00)) ?x2998 ?x51) 0)))
 (let ((?x41 (* q00 r00)))
 (let ((?x37 (* p00 s00)))
 (let ((?x148 (* (- 1) ?x37)))
 (let ((?x2707 (* s p)))
 (and (= (+ (* (- 1) (* r q)) ?x2707 ?x148 ?x41) 0) $x879 $x2395 (= ?x2910 0) $x2963 $x2969)))))))))))))))))))))))))) :qid k!39))
 ))
 (let ((?x869 (lambda ((p Int) (a Int) (q Int) (b Int) (r Int) (s Int) )(let ((?x1130 (+ p (* (- 1) q))))
 (let ((?x2632 (+ a (* (- 1) b))))
 (let ((?x847 (+ (* ?x2632 ?x2632 ?x2632 ?x2632 s s q q) (* b00 p00 ?x2632 ?x2632 ?x1130 ?x1130 ?x1130 s) (* ?x2632 ?x2632 ?x2632 ?x1130 ?x1130 ?x1130 s q) (* (- 1) (* a00 q00 ?x2632 ?x2632 ?x1130 ?x1130 ?x1130 s)) (* (- 1) (* a00 q00 ?x2632 ?x2632 ?x2632 s s q)) (* b00 p00 ?x2632 ?x2632 ?x2632 s s q) (* (- 1) (* ?x2632 ?x2632 ?x1130 ?x1130 ?x1130 ?x1130 s b)) (* (- 1) (* ?x2632 ?x2632 ?x2632 ?x1130 s s b q)))))
 (let ((?x856 (+ q (* (- 1) p))))
 (let ((?x844 (+ b (* (- 1) a))))
 (let ((?x2948 (+ s (* (- 1) r))))
 (let ((?x888 (+ (* ?x2948 ?x2948 ?x856 ?x856 a a a a) (* b00 p00 ?x2948 a a p p p) (* ?x2948 ?x856 a a a p p p) (* (- 1) (* a00 q00 ?x2948 a a p p p)) (* (- 1) (* a00 q00 ?x2948 ?x2948 ?x856 a a a)) (* b00 p00 ?x2948 ?x2948 ?x856 a a a) (* (- 1) (* ?x2948 ?x844 a a p p p p)) (* (- 1) (* ?x2948 ?x2948 ?x844 ?x856 a a a p)))))
 (let (($x2969 (or (not (= ?x888 0)) (not (= ?x847 0)))))
 (let ((?x73 (* b00 p00 s)))
 (let ((?x2957 (+ (* q00 r00 b) ?x73 (* (- 1) (* b00 r00 q)) (* (- 1) (* p00 s00 b)) (* a00 s00 q) (* (- 1) (* a00 q00 s)))))
 (let (($x2963 (= ?x2957 0)))
 (let ((?x69 (* a00 q00 r)))
 (let ((?x3077 (* p00 s00 a)))
 (let ((?x3062 (* b00 r00 p)))
 (let ((?x2063 (+ ?x3062 ?x3077 (* (- 1) (* b00 p00 r)) (* (- 1) (* q00 r00 a)) (* (- 1) (* a00 s00 p)) ?x69)))
 (let ((?x57 (* b00 p00)))
 (let ((?x1217 (* q a)))
 (let (($x2936 (= (+ ?x1217 (* (- 1) (* a00 q00)) ?x57 (* (- 1) (* b p))) 0)))
 (let ((?x47 (* a00 s00)))
 (let ((?x2038 (* r b)))
 (let (($x1126 (= (+ ?x2038 ?x47 (* (- 1) (* s a)) (* (- 1) (* b00 r00))) 0)))
 (let ((?x41 (* q00 r00)))
 (let ((?x3065 (* (- 1) ?x41)))
 (let ((?x37 (* p00 s00)))
 (let ((?x1210 (* r q)))
 (let (($x2631 (and (= (+ ?x1210 (* (- 1) (* s p)) ?x37 ?x3065) 0) $x1126 $x2936 (= ?x2063 0) $x2963 $x2969)))
 (let ((?x2210 (* a00 s00 p)))
 (let ((?x2203 (* q00 r00 a)))
 (let ((?x65 (* b00 p00 r)))
 (let (($x2930 (= (+ (* (- 1) ?x3062) (* (- 1) ?x3077) ?x65 ?x2203 ?x2210 (* (- 1) ?x69)) 0)))
 (let (($x2395 (= (+ (* (- 1) ?x1217) (* a00 q00) (* (- 1) ?x57) (* b p)) 0)))
 (let (($x879 (= (+ (* (- 1) ?x2038) (* (- 1) ?x47) (* s a) (* b00 r00)) 0)))
 (let (($x2954 (and (= (+ (* (- 1) ?x1210) (* s p) (* (- 1) ?x37) ?x41) 0) $x879 $x2395 $x2930 $x2963 $x2969)))
 (rewrite (= $x2954 $x2631))))))))))))))))))))))))))))))))))))
 ))
 (let (($x123 (exists ((p Int) (a Int) (q Int) (b Int) (r Int) (s Int) )(! (let ((?x103 (- s r)))
 (let ((?x102 (- q p)))
 (let ((?x114 (- b a)))
 (let ((?x107 (+ (* a a a a ?x102 ?x102 ?x103 ?x103) (* a a b00 p p p p00 ?x103) (* a a a p p p ?x102 ?x103))))
 (let ((?x111 (- (- ?x107 (* a a a00 p p p q00 ?x103)) (* a a a a00 ?x102 q00 ?x103 ?x103))))
 (let ((?x117 (- (+ ?x111 (* a a a b00 p00 ?x102 ?x103 ?x103)) (* a a ?x114 p p p p ?x103))))
 (let (($x120 (not (= (- ?x117 (* a a a ?x114 p ?x102 ?x103 ?x103)) 0))))
 (let ((?x86 (- p q)))
 (let ((?x84 (- a b)))
 (let ((?x89 (+ (* ?x84 ?x84 ?x84 ?x84 q q s s) (* ?x84 ?x84 b00 ?x86 ?x86 ?x86 p00 s) (* ?x84 ?x84 ?x84 ?x86 ?x86 ?x86 q s))))
 (let ((?x93 (- (- ?x89 (* ?x84 ?x84 a00 ?x86 ?x86 ?x86 q00 s)) (* ?x84 ?x84 ?x84 a00 q q00 s s))))
 (let ((?x98 (- (+ ?x93 (* ?x84 ?x84 ?x84 b00 p00 q s s)) (* ?x84 ?x84 b ?x86 ?x86 ?x86 ?x86 s))))
 (let (($x101 (not (= (- ?x98 (* ?x84 ?x84 ?x84 b ?x86 q s s)) 0))))
 (let ((?x81 (* a00 q00 s)))
 (let ((?x76 (* b p00 s00)))
 (let ((?x77 (- (+ (* b q00 r00) (* b00 p00 s)) (* b00 q r00))))
 (let ((?x69 (* a00 q00 r)))
 (let ((?x66 (* a q00 r00)))
 (let ((?x65 (* b00 p00 r)))
 (let ((?x68 (+ (- (* (- 1) b00 p r00) (* a p00 s00)) ?x65 ?x66 (* a00 p s00))))
 (let ((?x59 (* b p)))
 (let ((?x60 (+ (- (+ (* (- 1) a q) (* a00 q00)) (* b00 p00)) ?x59)))
 (let ((?x51 (* b00 r00)))
 (let ((?x49 (* a s)))
 (let (($x53 (= (+ (- (* (- 1) b r) (* a00 s00)) ?x49 ?x51) 0)))
 (let ((?x41 (* q00 r00)))
 (let ((?x42 (+ (- (+ (* (- 1) q r) (* p s)) (* p00 s00)) ?x41)))
 (and (= ?x42 0) $x53 (= ?x60 0) (= (- ?x68 ?x69) 0) (= (- (+ (- ?x77 ?x76) (* a00 q s00)) ?x81) 0) (or $x101 $x120))))))))))))))))))))))))))))) :qid k!39))
 ))
 (let ((?x2942 (lambda ((p Int) (a Int) (q Int) (b Int) (r Int) (s Int) )(let ((?x1130 (+ p (* (- 1) q))))
 (let ((?x2632 (+ a (* (- 1) b))))
 (let ((?x847 (+ (* ?x2632 ?x2632 ?x2632 ?x2632 s s q q) (* b00 p00 ?x2632 ?x2632 ?x1130 ?x1130 ?x1130 s) (* ?x2632 ?x2632 ?x2632 ?x1130 ?x1130 ?x1130 s q) (* (- 1) (* a00 q00 ?x2632 ?x2632 ?x1130 ?x1130 ?x1130 s)) (* (- 1) (* a00 q00 ?x2632 ?x2632 ?x2632 s s q)) (* b00 p00 ?x2632 ?x2632 ?x2632 s s q) (* (- 1) (* ?x2632 ?x2632 ?x1130 ?x1130 ?x1130 ?x1130 s b)) (* (- 1) (* ?x2632 ?x2632 ?x2632 ?x1130 s s b q)))))
 (let ((?x856 (+ q (* (- 1) p))))
 (let ((?x844 (+ b (* (- 1) a))))
 (let ((?x2948 (+ s (* (- 1) r))))
 (let ((?x888 (+ (* ?x2948 ?x2948 ?x856 ?x856 a a a a) (* b00 p00 ?x2948 a a p p p) (* ?x2948 ?x856 a a a p p p) (* (- 1) (* a00 q00 ?x2948 a a p p p)) (* (- 1) (* a00 q00 ?x2948 ?x2948 ?x856 a a a)) (* b00 p00 ?x2948 ?x2948 ?x856 a a a) (* (- 1) (* ?x2948 ?x844 a a p p p p)) (* (- 1) (* ?x2948 ?x2948 ?x844 ?x856 a a a p)))))
 (let (($x2969 (or (not (= ?x888 0)) (not (= ?x847 0)))))
 (let ((?x73 (* b00 p00 s)))
 (let ((?x2957 (+ (* q00 r00 b) ?x73 (* (- 1) (* b00 r00 q)) (* (- 1) (* p00 s00 b)) (* a00 s00 q) (* (- 1) (* a00 q00 s)))))
 (let (($x2963 (= ?x2957 0)))
 (let ((?x2210 (* a00 s00 p)))
 (let ((?x2203 (* q00 r00 a)))
 (let ((?x65 (* b00 p00 r)))
 (let ((?x2910 (+ (* (- 1) (* b00 r00 p)) (* (- 1) (* p00 s00 a)) ?x65 ?x2203 ?x2210 (* (- 1) (* a00 q00 r)))))
 (let ((?x59 (* b p)))
 (let ((?x55 (* a00 q00)))
 (let (($x2395 (= (+ (* (- 1) (* q a)) ?x55 (* (- 1) (* b00 p00)) ?x59) 0)))
 (let ((?x51 (* b00 r00)))
 (let ((?x2998 (* s a)))
 (let (($x879 (= (+ (* (- 1) (* r b)) (* (- 1) (* a00 s00)) ?x2998 ?x51) 0)))
 (let ((?x41 (* q00 r00)))
 (let ((?x37 (* p00 s00)))
 (let ((?x148 (* (- 1) ?x37)))
 (let ((?x2707 (* s p)))
 (let (($x2954 (and (= (+ (* (- 1) (* r q)) ?x2707 ?x148 ?x41) 0) $x879 $x2395 (= ?x2910 0) $x2963 $x2969)))
 (let ((?x103 (- s r)))
 (let ((?x102 (- q p)))
 (let ((?x114 (- b a)))
 (let ((?x107 (+ (* a a a a ?x102 ?x102 ?x103 ?x103) (* a a b00 p p p p00 ?x103) (* a a a p p p ?x102 ?x103))))
 (let ((?x111 (- (- ?x107 (* a a a00 p p p q00 ?x103)) (* a a a a00 ?x102 q00 ?x103 ?x103))))
 (let ((?x117 (- (+ ?x111 (* a a a b00 p00 ?x102 ?x103 ?x103)) (* a a ?x114 p p p p ?x103))))
 (let (($x120 (not (= (- ?x117 (* a a a ?x114 p ?x102 ?x103 ?x103)) 0))))
 (let ((?x86 (- p q)))
 (let ((?x84 (- a b)))
 (let ((?x89 (+ (* ?x84 ?x84 ?x84 ?x84 q q s s) (* ?x84 ?x84 b00 ?x86 ?x86 ?x86 p00 s) (* ?x84 ?x84 ?x84 ?x86 ?x86 ?x86 q s))))
 (let ((?x93 (- (- ?x89 (* ?x84 ?x84 a00 ?x86 ?x86 ?x86 q00 s)) (* ?x84 ?x84 ?x84 a00 q q00 s s))))
 (let ((?x98 (- (+ ?x93 (* ?x84 ?x84 ?x84 b00 p00 q s s)) (* ?x84 ?x84 b ?x86 ?x86 ?x86 ?x86 s))))
 (let (($x101 (not (= (- ?x98 (* ?x84 ?x84 ?x84 b ?x86 q s s)) 0))))
 (let ((?x81 (* a00 q00 s)))
 (let ((?x76 (* b p00 s00)))
 (let ((?x80 (+ (- (- (+ (* b q00 r00) ?x73) (* b00 q r00)) ?x76) (* a00 q s00))))
 (let ((?x69 (* a00 q00 r)))
 (let ((?x66 (* a q00 r00)))
 (let ((?x68 (+ (- (* (- 1) b00 p r00) (* a p00 s00)) ?x65 ?x66 (* a00 p s00))))
 (let (($x61 (= (+ (- (+ (* (- 1) a q) ?x55) (* b00 p00)) ?x59) 0)))
 (let (($x53 (= (+ (- (* (- 1) b r) (* a00 s00)) (* a s) ?x51) 0)))
 (let (($x44 (= (+ (- (+ (* (- 1) q r) (* p s)) ?x37) ?x41) 0)))
 (let (($x122 (and $x44 $x53 $x61 (= (- ?x68 ?x69) 0) (= (- ?x80 ?x81) 0) (or $x101 $x120))))
 (rewrite (= $x122 $x2954))))))))))))))))))))))))))))))))))))))))))))))))))))
 ))
 (let ((@x124 (asserted $x123)))
 (let ((@x891 (mp (mp @x124 (quant-intro (proof-bind ?x2942) (= $x123 $x2953)) $x2953) (rewrite (= $x2953 $x2953)) $x2953)))
 (let ((@x2091 (mp (mp @x891 (quant-intro (proof-bind ?x869) (= $x2953 $x2945)) $x2945) (quant-intro (proof-bind ?x1387) (= $x2945 $x719)) $x719)))
 (let ((@x2330 (mp (mp~ @x2091 (sk (~ $x719 $x1462)) $x1462) (rewrite (= $x1462 $x3090)) $x3090)))
 (let ((@x1502 (and-elim @x2330 $x1292)))
 (let ((@x1936 (unit-resolution ((_ th-lemma arith triangle-eq) (or (not $x1292) $x2560)) @x1502 $x2560)))
 (let (($x2984 (>= ?x1021 0)))
 (let ((@x1643 (unit-resolution ((_ th-lemma arith triangle-eq) (or (not $x1292) $x2984)) @x1502 $x2984)))
 (let (($x2688 (not (<= ?x507 0))))
 (let (($x1621 (>= ?x2588 0)))
 (let (($x2742 (<= ?x2588 0)))
 (let ((@x493 (unit-resolution ((_ th-lemma arith triangle-eq) (or $x3167 (not $x2742) (not $x1621))) (lemma ((_ th-lemma arith) (hypothesis (not $x2742)) @x1643 @x1936 false) $x2742) (lemma ((_ th-lemma arith) (hypothesis (not $x1621)) @x1643 @x1936 false) $x1621) $x3167)))
 (let (($x2829 (>= ?x507 0)))
 (let ((@x2675 (unit-resolution ((_ th-lemma arith triangle-eq) (or $x238 $x2688 (not $x2829))) (lemma ((_ th-lemma arith) (hypothesis (not $x2829)) @x1643 @x1936 false) $x2829) (unit-resolution (and-elim @x2330 $x2838) @x493 $x2985) $x2688)))
 ((_ th-lemma arith) @x2675 @x1643 @x1936 false))))))))))))))))))))))))))))))))))))))))))))))))))))))))))))))))))))))

(:added-eqs                 6
 :arith-assert-diseq        3
 :arith-assert-lower        19
 :arith-assert-upper        10
 :arith-conflicts           4
 :arith-eq-adapter          7
 :arith-gcd-tests           4
 :arith-grobner             4
 :arith-max-min             1878
 :arith-nonlinear-bounds    10
 :arith-nonlinear-horner    26
 :arith-num-rows            7
 :arith-patches             4
 :arith-patches_succ        4
 :arith-pivots              7
 :arith-tableau-max-columns 134
 :arith-tableau-max-rows    7
 :conflicts                 4
 :decisions                 7
 :del-clause                15
 :final-checks              8
 :max-memory                4.09
 :memory                    3.48
 :mk-bool-var               27
 :mk-clause                 24
 :num-allocs                1623919
 :num-checks                1
 :propagations              19
 :rlimit-count              18328
 :time                      0.03
 :total-time                0.04)
